dates = {'2021-11-14','2021-11-15','2021-11-16','2021-11-17','2021-11-18','2021-11-19','2021-11-20','2021-11-21','2021-11-22','2021-11-23','2021-11-24','2021-11-25','2021-11-26','2021-11-27','2021-11-28','2021-11-29','2021-11-30','2021-12-01','2021-12-02','2021-12-03'};

6daysOfWeek = [Sunday,Monday,Tuesday,Wednesday,Thursday,Friday,Saturday,Sunday,Monday,Tuesday,Wednesday,Thursday,Friday,Saturday,Sunday,Monday,Tuesday,Wednesday,Thursday,Friday];

% For this week, how many people will be here.
numPeople = [54,65,62,74,83,93,84,88,85,95,95,105,105,108,108,108,105,105
,105,115];

% Physical workers need 50 to 100 % more nutrients per day.
numPhysicalWorkers = [28.0,33.0,33.0,37.5,37.5,38.0,37.0,37.0,37.0,40.0,40.0,41.0,41.0,41.0
,41.0,41.0,41.0,41.0,41.0,45.0];

% Males need +25% more nutrients per day.
numMen = [40,47,47,52,60,71,71,65,65,72,72,81,81,84,84,84,84,81,81,86];

% Num people who do not eat categories. contains = {none, meat, milk, gluten, egg, nut, seed, sugars}
numRefusals = [| 0,0,0,0,0,0,5,2 | 0,2,5,0,1,3,0,0 | 0,0,6,1,0,1,0,0 | 0,0,0,0,1,0,3,0 | 0,0,1,3,1,0,4,2 | 0,2,3,0,0,3,0,0 | 0,1,2,3,0,0,0,0 | 0,4,0,3,9,1,0,0 | 0,0,8,0,8,0,0,3 | 0,0,6,9,0,0,0,6 | 0,0,6,9,0,0,0,6 | 0,1,0,0,0,1,0,8 | 0,1,0,0,0,1,0,8 | 0,0,0,0,8,0,4,0 | 0,0,0,0,8,0,4,0 | 0,0,0,0,8,0,4,0 | 0,0,4,0,0,2,6,2 | 0,0,4,0,0,2,6,2 | 0,0,4,0,0,2,6,2 | 0,0,0,2,2,13,0,0 |];

